100
32
17
10
19
14
6
25
11
8
8
19
1
4
1
1
2
1
1
3
2
17
3
2
1
17
21
1
1
3
2
3
1
2
1
2
4
5
2
1
1
2
17
1
2
19
3
3
9
3
6
1
1
19
1
17
2
1
3
1
2
1
3
1
7
1
17
2
1
1
3
1
1
1
2
3
17
17
5
1
2
2
2
1
1
1
2
1
2
3
1
3
1
1
1
1
2
1
2
1
1
1